c This Formular is generated by mcnf
c
c    horn? no 
c    forced? no 
c    mixed sat? no 
c    clause length = 3 
c
p cnf 20  91 
 18 16 4 0
2 -16 4 0
-1 10 4 0
-16 -15 7 0
1 19 -6 0
18 -4 1 0
-5 -9 8 0
-9 19 6 0
11 -18 -7 0
6 -12 -19 0
-4 16 -7 0
5 11 18 0
13 3 -11 0
20 -4 18 0
-11 9 8 0
20 12 -6 0
-12 -14 16 0
19 -9 -17 0
8 17 -1 0
14 -15 7 0
14 -18 12 0
%
0

7 35 44 90 2 64 72 25 76 100 46 34 27 15 23 43 39 16 83 100
